============================[ Problem Statistics ]=============================|                                                                             ||  Number of variables:          4242                                         ||  Number of clauses:           10401                                         ||  Parse time:                   0.79 s                                       ||                                                                             |============================[ Search Statistics ]==============================| Conflicts |          ORIGINAL         |          LEARNT          | Progress ||           |    Vars  Clauses Literals |    Limit  Clauses Lit/Cl |          |===============================================================================|       100 |    1591     6606  1257547 |     2422      100     53 | 62.501 % ||       250 |    1591     6606  1257547 |     2664      250     75 | 62.495 % |===============================================================================restarts              : 4conflicts             : 425            (358 /sec)decisions             : 783            (0.00 % random) (660 /sec)propagations          : 13693          (11536 /sec)conflict literals     : 35654          (94.50 % deleted)CPU time              : 1.187 sSATISFIABLE